data;
set V := 1 2 3 4 5 6 7 8 9 10 11 12 13 14 15 16 17 18 19 20 21 22 23 24 25 26 27 28 29 30 31 32 33 34 35 36 37 38 39 40 41 42 43 44 45 46 47 48 49 50 51 52 53 54 55 56 57 58 59 60 61 62 63 64 65 66 67 68 69 70 71 72 73 74 75 76 77 78 79 80 81;
set E :=
	(1,11)
	(11,1)
	(1,21)
	(21,1)
	(1,31)
	(31,1)
	(1,41)
	(41,1)
	(1,51)
	(51,1)
	(1,61)
	(61,1)
	(1,71)
	(71,1)
	(1,81)
	(81,1)
	(1,2)
	(2,1)
	(1,3)
	(3,1)
	(1,4)
	(4,1)
	(1,5)
	(5,1)
	(1,6)
	(6,1)
	(1,7)
	(7,1)
	(1,8)
	(8,1)
	(1,9)
	(9,1)
	(1,10)
	(10,1)
	(1,19)
	(19,1)
	(1,28)
	(28,1)
	(1,37)
	(37,1)
	(1,46)
	(46,1)
	(1,55)
	(55,1)
	(1,64)
	(64,1)
	(1,73)
	(73,1)
	(2,12)
	(12,2)
	(2,22)
	(22,2)
	(2,32)
	(32,2)
	(2,42)
	(42,2)
	(2,52)
	(52,2)
	(2,62)
	(62,2)
	(2,72)
	(72,2)
	(2,10)
	(10,2)
	(2,3)
	(3,2)
	(2,4)
	(4,2)
	(2,5)
	(5,2)
	(2,6)
	(6,2)
	(2,7)
	(7,2)
	(2,8)
	(8,2)
	(2,9)
	(9,2)
	(2,11)
	(11,2)
	(2,20)
	(20,2)
	(2,29)
	(29,2)
	(2,38)
	(38,2)
	(2,47)
	(47,2)
	(2,56)
	(56,2)
	(2,65)
	(65,2)
	(2,74)
	(74,2)
	(2,1)
	(1,2)
	(3,13)
	(13,3)
	(3,23)
	(23,3)
	(3,33)
	(33,3)
	(3,43)
	(43,3)
	(3,53)
	(53,3)
	(3,63)
	(63,3)
	(3,11)
	(11,3)
	(3,19)
	(19,3)
	(3,4)
	(4,3)
	(3,5)
	(5,3)
	(3,6)
	(6,3)
	(3,7)
	(7,3)
	(3,8)
	(8,3)
	(3,9)
	(9,3)
	(3,12)
	(12,3)
	(3,21)
	(21,3)
	(3,30)
	(30,3)
	(3,39)
	(39,3)
	(3,48)
	(48,3)
	(3,57)
	(57,3)
	(3,66)
	(66,3)
	(3,75)
	(75,3)
	(3,2)
	(2,3)
	(3,1)
	(1,3)
	(4,14)
	(14,4)
	(4,24)
	(24,4)
	(4,34)
	(34,4)
	(4,44)
	(44,4)
	(4,54)
	(54,4)
	(4,12)
	(12,4)
	(4,20)
	(20,4)
	(4,28)
	(28,4)
	(4,5)
	(5,4)
	(4,6)
	(6,4)
	(4,7)
	(7,4)
	(4,8)
	(8,4)
	(4,9)
	(9,4)
	(4,13)
	(13,4)
	(4,22)
	(22,4)
	(4,31)
	(31,4)
	(4,40)
	(40,4)
	(4,49)
	(49,4)
	(4,58)
	(58,4)
	(4,67)
	(67,4)
	(4,76)
	(76,4)
	(4,3)
	(3,4)
	(4,2)
	(2,4)
	(4,1)
	(1,4)
	(5,15)
	(15,5)
	(5,25)
	(25,5)
	(5,35)
	(35,5)
	(5,45)
	(45,5)
	(5,13)
	(13,5)
	(5,21)
	(21,5)
	(5,29)
	(29,5)
	(5,37)
	(37,5)
	(5,6)
	(6,5)
	(5,7)
	(7,5)
	(5,8)
	(8,5)
	(5,9)
	(9,5)
	(5,14)
	(14,5)
	(5,23)
	(23,5)
	(5,32)
	(32,5)
	(5,41)
	(41,5)
	(5,50)
	(50,5)
	(5,59)
	(59,5)
	(5,68)
	(68,5)
	(5,77)
	(77,5)
	(5,4)
	(4,5)
	(5,3)
	(3,5)
	(5,2)
	(2,5)
	(5,1)
	(1,5)
	(6,16)
	(16,6)
	(6,26)
	(26,6)
	(6,36)
	(36,6)
	(6,14)
	(14,6)
	(6,22)
	(22,6)
	(6,30)
	(30,6)
	(6,38)
	(38,6)
	(6,46)
	(46,6)
	(6,7)
	(7,6)
	(6,8)
	(8,6)
	(6,9)
	(9,6)
	(6,15)
	(15,6)
	(6,24)
	(24,6)
	(6,33)
	(33,6)
	(6,42)
	(42,6)
	(6,51)
	(51,6)
	(6,60)
	(60,6)
	(6,69)
	(69,6)
	(6,78)
	(78,6)
	(6,5)
	(5,6)
	(6,4)
	(4,6)
	(6,3)
	(3,6)
	(6,2)
	(2,6)
	(6,1)
	(1,6)
	(7,17)
	(17,7)
	(7,27)
	(27,7)
	(7,15)
	(15,7)
	(7,23)
	(23,7)
	(7,31)
	(31,7)
	(7,39)
	(39,7)
	(7,47)
	(47,7)
	(7,55)
	(55,7)
	(7,8)
	(8,7)
	(7,9)
	(9,7)
	(7,16)
	(16,7)
	(7,25)
	(25,7)
	(7,34)
	(34,7)
	(7,43)
	(43,7)
	(7,52)
	(52,7)
	(7,61)
	(61,7)
	(7,70)
	(70,7)
	(7,79)
	(79,7)
	(7,6)
	(6,7)
	(7,5)
	(5,7)
	(7,4)
	(4,7)
	(7,3)
	(3,7)
	(7,2)
	(2,7)
	(7,1)
	(1,7)
	(8,18)
	(18,8)
	(8,16)
	(16,8)
	(8,24)
	(24,8)
	(8,32)
	(32,8)
	(8,40)
	(40,8)
	(8,48)
	(48,8)
	(8,56)
	(56,8)
	(8,64)
	(64,8)
	(8,9)
	(9,8)
	(8,17)
	(17,8)
	(8,26)
	(26,8)
	(8,35)
	(35,8)
	(8,44)
	(44,8)
	(8,53)
	(53,8)
	(8,62)
	(62,8)
	(8,71)
	(71,8)
	(8,80)
	(80,8)
	(8,7)
	(7,8)
	(8,6)
	(6,8)
	(8,5)
	(5,8)
	(8,4)
	(4,8)
	(8,3)
	(3,8)
	(8,2)
	(2,8)
	(8,1)
	(1,8)
	(9,17)
	(17,9)
	(9,25)
	(25,9)
	(9,33)
	(33,9)
	(9,41)
	(41,9)
	(9,49)
	(49,9)
	(9,57)
	(57,9)
	(9,65)
	(65,9)
	(9,73)
	(73,9)
	(9,18)
	(18,9)
	(9,27)
	(27,9)
	(9,36)
	(36,9)
	(9,45)
	(45,9)
	(9,54)
	(54,9)
	(9,63)
	(63,9)
	(9,72)
	(72,9)
	(9,81)
	(81,9)
	(9,8)
	(8,9)
	(9,7)
	(7,9)
	(9,6)
	(6,9)
	(9,5)
	(5,9)
	(9,4)
	(4,9)
	(9,3)
	(3,9)
	(9,2)
	(2,9)
	(9,1)
	(1,9)
	(10,20)
	(20,10)
	(10,30)
	(30,10)
	(10,40)
	(40,10)
	(10,50)
	(50,10)
	(10,60)
	(60,10)
	(10,70)
	(70,10)
	(10,80)
	(80,10)
	(10,11)
	(11,10)
	(10,12)
	(12,10)
	(10,13)
	(13,10)
	(10,14)
	(14,10)
	(10,15)
	(15,10)
	(10,16)
	(16,10)
	(10,17)
	(17,10)
	(10,18)
	(18,10)
	(10,19)
	(19,10)
	(10,28)
	(28,10)
	(10,37)
	(37,10)
	(10,46)
	(46,10)
	(10,55)
	(55,10)
	(10,64)
	(64,10)
	(10,73)
	(73,10)
	(10,2)
	(2,10)
	(10,1)
	(1,10)
	(11,21)
	(21,11)
	(11,31)
	(31,11)
	(11,41)
	(41,11)
	(11,51)
	(51,11)
	(11,61)
	(61,11)
	(11,71)
	(71,11)
	(11,81)
	(81,11)
	(11,19)
	(19,11)
	(11,12)
	(12,11)
	(11,13)
	(13,11)
	(11,14)
	(14,11)
	(11,15)
	(15,11)
	(11,16)
	(16,11)
	(11,17)
	(17,11)
	(11,18)
	(18,11)
	(11,20)
	(20,11)
	(11,29)
	(29,11)
	(11,38)
	(38,11)
	(11,47)
	(47,11)
	(11,56)
	(56,11)
	(11,65)
	(65,11)
	(11,74)
	(74,11)
	(11,10)
	(10,11)
	(11,3)
	(3,11)
	(11,2)
	(2,11)
	(11,1)
	(1,11)
	(12,22)
	(22,12)
	(12,32)
	(32,12)
	(12,42)
	(42,12)
	(12,52)
	(52,12)
	(12,62)
	(62,12)
	(12,72)
	(72,12)
	(12,20)
	(20,12)
	(12,28)
	(28,12)
	(12,13)
	(13,12)
	(12,14)
	(14,12)
	(12,15)
	(15,12)
	(12,16)
	(16,12)
	(12,17)
	(17,12)
	(12,18)
	(18,12)
	(12,21)
	(21,12)
	(12,30)
	(30,12)
	(12,39)
	(39,12)
	(12,48)
	(48,12)
	(12,57)
	(57,12)
	(12,66)
	(66,12)
	(12,75)
	(75,12)
	(12,11)
	(11,12)
	(12,10)
	(10,12)
	(12,4)
	(4,12)
	(12,3)
	(3,12)
	(12,2)
	(2,12)
	(13,23)
	(23,13)
	(13,33)
	(33,13)
	(13,43)
	(43,13)
	(13,53)
	(53,13)
	(13,63)
	(63,13)
	(13,21)
	(21,13)
	(13,29)
	(29,13)
	(13,37)
	(37,13)
	(13,14)
	(14,13)
	(13,15)
	(15,13)
	(13,16)
	(16,13)
	(13,17)
	(17,13)
	(13,18)
	(18,13)
	(13,22)
	(22,13)
	(13,31)
	(31,13)
	(13,40)
	(40,13)
	(13,49)
	(49,13)
	(13,58)
	(58,13)
	(13,67)
	(67,13)
	(13,76)
	(76,13)
	(13,12)
	(12,13)
	(13,11)
	(11,13)
	(13,10)
	(10,13)
	(13,5)
	(5,13)
	(13,4)
	(4,13)
	(13,3)
	(3,13)
	(14,24)
	(24,14)
	(14,34)
	(34,14)
	(14,44)
	(44,14)
	(14,54)
	(54,14)
	(14,22)
	(22,14)
	(14,30)
	(30,14)
	(14,38)
	(38,14)
	(14,46)
	(46,14)
	(14,15)
	(15,14)
	(14,16)
	(16,14)
	(14,17)
	(17,14)
	(14,18)
	(18,14)
	(14,23)
	(23,14)
	(14,32)
	(32,14)
	(14,41)
	(41,14)
	(14,50)
	(50,14)
	(14,59)
	(59,14)
	(14,68)
	(68,14)
	(14,77)
	(77,14)
	(14,13)
	(13,14)
	(14,12)
	(12,14)
	(14,11)
	(11,14)
	(14,10)
	(10,14)
	(14,6)
	(6,14)
	(14,5)
	(5,14)
	(14,4)
	(4,14)
	(15,25)
	(25,15)
	(15,35)
	(35,15)
	(15,45)
	(45,15)
	(15,23)
	(23,15)
	(15,31)
	(31,15)
	(15,39)
	(39,15)
	(15,47)
	(47,15)
	(15,55)
	(55,15)
	(15,16)
	(16,15)
	(15,17)
	(17,15)
	(15,18)
	(18,15)
	(15,24)
	(24,15)
	(15,33)
	(33,15)
	(15,42)
	(42,15)
	(15,51)
	(51,15)
	(15,60)
	(60,15)
	(15,69)
	(69,15)
	(15,78)
	(78,15)
	(15,14)
	(14,15)
	(15,13)
	(13,15)
	(15,12)
	(12,15)
	(15,11)
	(11,15)
	(15,10)
	(10,15)
	(15,7)
	(7,15)
	(15,6)
	(6,15)
	(15,5)
	(5,15)
	(16,26)
	(26,16)
	(16,36)
	(36,16)
	(16,24)
	(24,16)
	(16,32)
	(32,16)
	(16,40)
	(40,16)
	(16,48)
	(48,16)
	(16,56)
	(56,16)
	(16,64)
	(64,16)
	(16,17)
	(17,16)
	(16,18)
	(18,16)
	(16,25)
	(25,16)
	(16,34)
	(34,16)
	(16,43)
	(43,16)
	(16,52)
	(52,16)
	(16,61)
	(61,16)
	(16,70)
	(70,16)
	(16,79)
	(79,16)
	(16,15)
	(15,16)
	(16,14)
	(14,16)
	(16,13)
	(13,16)
	(16,12)
	(12,16)
	(16,11)
	(11,16)
	(16,10)
	(10,16)
	(16,8)
	(8,16)
	(16,7)
	(7,16)
	(16,6)
	(6,16)
	(17,27)
	(27,17)
	(17,25)
	(25,17)
	(17,33)
	(33,17)
	(17,41)
	(41,17)
	(17,49)
	(49,17)
	(17,57)
	(57,17)
	(17,65)
	(65,17)
	(17,73)
	(73,17)
	(17,18)
	(18,17)
	(17,26)
	(26,17)
	(17,35)
	(35,17)
	(17,44)
	(44,17)
	(17,53)
	(53,17)
	(17,62)
	(62,17)
	(17,71)
	(71,17)
	(17,80)
	(80,17)
	(17,16)
	(16,17)
	(17,15)
	(15,17)
	(17,14)
	(14,17)
	(17,13)
	(13,17)
	(17,12)
	(12,17)
	(17,11)
	(11,17)
	(17,10)
	(10,17)
	(17,9)
	(9,17)
	(17,8)
	(8,17)
	(17,7)
	(7,17)
	(18,26)
	(26,18)
	(18,34)
	(34,18)
	(18,42)
	(42,18)
	(18,50)
	(50,18)
	(18,58)
	(58,18)
	(18,66)
	(66,18)
	(18,74)
	(74,18)
	(18,27)
	(27,18)
	(18,36)
	(36,18)
	(18,45)
	(45,18)
	(18,54)
	(54,18)
	(18,63)
	(63,18)
	(18,72)
	(72,18)
	(18,81)
	(81,18)
	(18,17)
	(17,18)
	(18,16)
	(16,18)
	(18,15)
	(15,18)
	(18,14)
	(14,18)
	(18,13)
	(13,18)
	(18,12)
	(12,18)
	(18,11)
	(11,18)
	(18,10)
	(10,18)
	(18,9)
	(9,18)
	(18,8)
	(8,18)
	(19,29)
	(29,19)
	(19,39)
	(39,19)
	(19,49)
	(49,19)
	(19,59)
	(59,19)
	(19,69)
	(69,19)
	(19,79)
	(79,19)
	(19,20)
	(20,19)
	(19,21)
	(21,19)
	(19,22)
	(22,19)
	(19,23)
	(23,19)
	(19,24)
	(24,19)
	(19,25)
	(25,19)
	(19,26)
	(26,19)
	(19,27)
	(27,19)
	(19,28)
	(28,19)
	(19,37)
	(37,19)
	(19,46)
	(46,19)
	(19,55)
	(55,19)
	(19,64)
	(64,19)
	(19,73)
	(73,19)
	(19,11)
	(11,19)
	(19,10)
	(10,19)
	(19,3)
	(3,19)
	(19,1)
	(1,19)
	(20,30)
	(30,20)
	(20,40)
	(40,20)
	(20,50)
	(50,20)
	(20,60)
	(60,20)
	(20,70)
	(70,20)
	(20,80)
	(80,20)
	(20,28)
	(28,20)
	(20,21)
	(21,20)
	(20,22)
	(22,20)
	(20,23)
	(23,20)
	(20,24)
	(24,20)
	(20,25)
	(25,20)
	(20,26)
	(26,20)
	(20,27)
	(27,20)
	(20,29)
	(29,20)
	(20,38)
	(38,20)
	(20,47)
	(47,20)
	(20,56)
	(56,20)
	(20,65)
	(65,20)
	(20,74)
	(74,20)
	(20,19)
	(19,20)
	(20,12)
	(12,20)
	(20,11)
	(11,20)
	(20,10)
	(10,20)
	(20,4)
	(4,20)
	(20,2)
	(2,20)
	(21,31)
	(31,21)
	(21,41)
	(41,21)
	(21,51)
	(51,21)
	(21,61)
	(61,21)
	(21,71)
	(71,21)
	(21,81)
	(81,21)
	(21,29)
	(29,21)
	(21,37)
	(37,21)
	(21,22)
	(22,21)
	(21,23)
	(23,21)
	(21,24)
	(24,21)
	(21,25)
	(25,21)
	(21,26)
	(26,21)
	(21,27)
	(27,21)
	(21,30)
	(30,21)
	(21,39)
	(39,21)
	(21,48)
	(48,21)
	(21,57)
	(57,21)
	(21,66)
	(66,21)
	(21,75)
	(75,21)
	(21,20)
	(20,21)
	(21,19)
	(19,21)
	(21,13)
	(13,21)
	(21,12)
	(12,21)
	(21,11)
	(11,21)
	(21,5)
	(5,21)
	(21,3)
	(3,21)
	(21,1)
	(1,21)
	(22,32)
	(32,22)
	(22,42)
	(42,22)
	(22,52)
	(52,22)
	(22,62)
	(62,22)
	(22,72)
	(72,22)
	(22,30)
	(30,22)
	(22,38)
	(38,22)
	(22,46)
	(46,22)
	(22,23)
	(23,22)
	(22,24)
	(24,22)
	(22,25)
	(25,22)
	(22,26)
	(26,22)
	(22,27)
	(27,22)
	(22,31)
	(31,22)
	(22,40)
	(40,22)
	(22,49)
	(49,22)
	(22,58)
	(58,22)
	(22,67)
	(67,22)
	(22,76)
	(76,22)
	(22,21)
	(21,22)
	(22,20)
	(20,22)
	(22,19)
	(19,22)
	(22,14)
	(14,22)
	(22,13)
	(13,22)
	(22,12)
	(12,22)
	(22,6)
	(6,22)
	(22,4)
	(4,22)
	(22,2)
	(2,22)
	(23,33)
	(33,23)
	(23,43)
	(43,23)
	(23,53)
	(53,23)
	(23,63)
	(63,23)
	(23,31)
	(31,23)
	(23,39)
	(39,23)
	(23,47)
	(47,23)
	(23,55)
	(55,23)
	(23,24)
	(24,23)
	(23,25)
	(25,23)
	(23,26)
	(26,23)
	(23,27)
	(27,23)
	(23,32)
	(32,23)
	(23,41)
	(41,23)
	(23,50)
	(50,23)
	(23,59)
	(59,23)
	(23,68)
	(68,23)
	(23,77)
	(77,23)
	(23,22)
	(22,23)
	(23,21)
	(21,23)
	(23,20)
	(20,23)
	(23,19)
	(19,23)
	(23,15)
	(15,23)
	(23,14)
	(14,23)
	(23,13)
	(13,23)
	(23,7)
	(7,23)
	(23,5)
	(5,23)
	(23,3)
	(3,23)
	(24,34)
	(34,24)
	(24,44)
	(44,24)
	(24,54)
	(54,24)
	(24,32)
	(32,24)
	(24,40)
	(40,24)
	(24,48)
	(48,24)
	(24,56)
	(56,24)
	(24,64)
	(64,24)
	(24,25)
	(25,24)
	(24,26)
	(26,24)
	(24,27)
	(27,24)
	(24,33)
	(33,24)
	(24,42)
	(42,24)
	(24,51)
	(51,24)
	(24,60)
	(60,24)
	(24,69)
	(69,24)
	(24,78)
	(78,24)
	(24,23)
	(23,24)
	(24,22)
	(22,24)
	(24,21)
	(21,24)
	(24,20)
	(20,24)
	(24,19)
	(19,24)
	(24,16)
	(16,24)
	(24,15)
	(15,24)
	(24,14)
	(14,24)
	(24,8)
	(8,24)
	(24,6)
	(6,24)
	(24,4)
	(4,24)
	(25,35)
	(35,25)
	(25,45)
	(45,25)
	(25,33)
	(33,25)
	(25,41)
	(41,25)
	(25,49)
	(49,25)
	(25,57)
	(57,25)
	(25,65)
	(65,25)
	(25,73)
	(73,25)
	(25,26)
	(26,25)
	(25,27)
	(27,25)
	(25,34)
	(34,25)
	(25,43)
	(43,25)
	(25,52)
	(52,25)
	(25,61)
	(61,25)
	(25,70)
	(70,25)
	(25,79)
	(79,25)
	(25,24)
	(24,25)
	(25,23)
	(23,25)
	(25,22)
	(22,25)
	(25,21)
	(21,25)
	(25,20)
	(20,25)
	(25,19)
	(19,25)
	(25,17)
	(17,25)
	(25,16)
	(16,25)
	(25,15)
	(15,25)
	(25,9)
	(9,25)
	(25,7)
	(7,25)
	(25,5)
	(5,25)
	(26,36)
	(36,26)
	(26,34)
	(34,26)
	(26,42)
	(42,26)
	(26,50)
	(50,26)
	(26,58)
	(58,26)
	(26,66)
	(66,26)
	(26,74)
	(74,26)
	(26,27)
	(27,26)
	(26,35)
	(35,26)
	(26,44)
	(44,26)
	(26,53)
	(53,26)
	(26,62)
	(62,26)
	(26,71)
	(71,26)
	(26,80)
	(80,26)
	(26,25)
	(25,26)
	(26,24)
	(24,26)
	(26,23)
	(23,26)
	(26,22)
	(22,26)
	(26,21)
	(21,26)
	(26,20)
	(20,26)
	(26,19)
	(19,26)
	(26,18)
	(18,26)
	(26,17)
	(17,26)
	(26,16)
	(16,26)
	(26,8)
	(8,26)
	(26,6)
	(6,26)
	(27,35)
	(35,27)
	(27,43)
	(43,27)
	(27,51)
	(51,27)
	(27,59)
	(59,27)
	(27,67)
	(67,27)
	(27,75)
	(75,27)
	(27,36)
	(36,27)
	(27,45)
	(45,27)
	(27,54)
	(54,27)
	(27,63)
	(63,27)
	(27,72)
	(72,27)
	(27,81)
	(81,27)
	(27,26)
	(26,27)
	(27,25)
	(25,27)
	(27,24)
	(24,27)
	(27,23)
	(23,27)
	(27,22)
	(22,27)
	(27,21)
	(21,27)
	(27,20)
	(20,27)
	(27,19)
	(19,27)
	(27,18)
	(18,27)
	(27,17)
	(17,27)
	(27,9)
	(9,27)
	(27,7)
	(7,27)
	(28,38)
	(38,28)
	(28,48)
	(48,28)
	(28,58)
	(58,28)
	(28,68)
	(68,28)
	(28,78)
	(78,28)
	(28,29)
	(29,28)
	(28,30)
	(30,28)
	(28,31)
	(31,28)
	(28,32)
	(32,28)
	(28,33)
	(33,28)
	(28,34)
	(34,28)
	(28,35)
	(35,28)
	(28,36)
	(36,28)
	(28,37)
	(37,28)
	(28,46)
	(46,28)
	(28,55)
	(55,28)
	(28,64)
	(64,28)
	(28,73)
	(73,28)
	(28,20)
	(20,28)
	(28,19)
	(19,28)
	(28,12)
	(12,28)
	(28,10)
	(10,28)
	(28,4)
	(4,28)
	(28,1)
	(1,28)
	(29,39)
	(39,29)
	(29,49)
	(49,29)
	(29,59)
	(59,29)
	(29,69)
	(69,29)
	(29,79)
	(79,29)
	(29,37)
	(37,29)
	(29,30)
	(30,29)
	(29,31)
	(31,29)
	(29,32)
	(32,29)
	(29,33)
	(33,29)
	(29,34)
	(34,29)
	(29,35)
	(35,29)
	(29,36)
	(36,29)
	(29,38)
	(38,29)
	(29,47)
	(47,29)
	(29,56)
	(56,29)
	(29,65)
	(65,29)
	(29,74)
	(74,29)
	(29,28)
	(28,29)
	(29,21)
	(21,29)
	(29,20)
	(20,29)
	(29,19)
	(19,29)
	(29,13)
	(13,29)
	(29,11)
	(11,29)
	(29,5)
	(5,29)
	(29,2)
	(2,29)
	(30,40)
	(40,30)
	(30,50)
	(50,30)
	(30,60)
	(60,30)
	(30,70)
	(70,30)
	(30,80)
	(80,30)
	(30,38)
	(38,30)
	(30,46)
	(46,30)
	(30,31)
	(31,30)
	(30,32)
	(32,30)
	(30,33)
	(33,30)
	(30,34)
	(34,30)
	(30,35)
	(35,30)
	(30,36)
	(36,30)
	(30,39)
	(39,30)
	(30,48)
	(48,30)
	(30,57)
	(57,30)
	(30,66)
	(66,30)
	(30,75)
	(75,30)
	(30,29)
	(29,30)
	(30,28)
	(28,30)
	(30,22)
	(22,30)
	(30,21)
	(21,30)
	(30,20)
	(20,30)
	(30,14)
	(14,30)
	(30,12)
	(12,30)
	(30,10)
	(10,30)
	(30,6)
	(6,30)
	(30,3)
	(3,30)
	(31,41)
	(41,31)
	(31,51)
	(51,31)
	(31,61)
	(61,31)
	(31,71)
	(71,31)
	(31,81)
	(81,31)
	(31,39)
	(39,31)
	(31,47)
	(47,31)
	(31,55)
	(55,31)
	(31,32)
	(32,31)
	(31,33)
	(33,31)
	(31,34)
	(34,31)
	(31,35)
	(35,31)
	(31,36)
	(36,31)
	(31,40)
	(40,31)
	(31,49)
	(49,31)
	(31,58)
	(58,31)
	(31,67)
	(67,31)
	(31,76)
	(76,31)
	(31,30)
	(30,31)
	(31,29)
	(29,31)
	(31,28)
	(28,31)
	(31,23)
	(23,31)
	(31,22)
	(22,31)
	(31,21)
	(21,31)
	(31,15)
	(15,31)
	(31,13)
	(13,31)
	(31,11)
	(11,31)
	(31,7)
	(7,31)
	(31,4)
	(4,31)
	(31,1)
	(1,31)
	(32,42)
	(42,32)
	(32,52)
	(52,32)
	(32,62)
	(62,32)
	(32,72)
	(72,32)
	(32,40)
	(40,32)
	(32,48)
	(48,32)
	(32,56)
	(56,32)
	(32,64)
	(64,32)
	(32,33)
	(33,32)
	(32,34)
	(34,32)
	(32,35)
	(35,32)
	(32,36)
	(36,32)
	(32,41)
	(41,32)
	(32,50)
	(50,32)
	(32,59)
	(59,32)
	(32,68)
	(68,32)
	(32,77)
	(77,32)
	(32,31)
	(31,32)
	(32,30)
	(30,32)
	(32,29)
	(29,32)
	(32,28)
	(28,32)
	(32,24)
	(24,32)
	(32,23)
	(23,32)
	(32,22)
	(22,32)
	(32,16)
	(16,32)
	(32,14)
	(14,32)
	(32,12)
	(12,32)
	(32,8)
	(8,32)
	(32,5)
	(5,32)
	(32,2)
	(2,32)
	(33,43)
	(43,33)
	(33,53)
	(53,33)
	(33,63)
	(63,33)
	(33,41)
	(41,33)
	(33,49)
	(49,33)
	(33,57)
	(57,33)
	(33,65)
	(65,33)
	(33,73)
	(73,33)
	(33,34)
	(34,33)
	(33,35)
	(35,33)
	(33,36)
	(36,33)
	(33,42)
	(42,33)
	(33,51)
	(51,33)
	(33,60)
	(60,33)
	(33,69)
	(69,33)
	(33,78)
	(78,33)
	(33,32)
	(32,33)
	(33,31)
	(31,33)
	(33,30)
	(30,33)
	(33,29)
	(29,33)
	(33,28)
	(28,33)
	(33,25)
	(25,33)
	(33,24)
	(24,33)
	(33,23)
	(23,33)
	(33,17)
	(17,33)
	(33,15)
	(15,33)
	(33,13)
	(13,33)
	(33,9)
	(9,33)
	(33,6)
	(6,33)
	(33,3)
	(3,33)
	(34,44)
	(44,34)
	(34,54)
	(54,34)
	(34,42)
	(42,34)
	(34,50)
	(50,34)
	(34,58)
	(58,34)
	(34,66)
	(66,34)
	(34,74)
	(74,34)
	(34,35)
	(35,34)
	(34,36)
	(36,34)
	(34,43)
	(43,34)
	(34,52)
	(52,34)
	(34,61)
	(61,34)
	(34,70)
	(70,34)
	(34,79)
	(79,34)
	(34,33)
	(33,34)
	(34,32)
	(32,34)
	(34,31)
	(31,34)
	(34,30)
	(30,34)
	(34,29)
	(29,34)
	(34,28)
	(28,34)
	(34,26)
	(26,34)
	(34,25)
	(25,34)
	(34,24)
	(24,34)
	(34,18)
	(18,34)
	(34,16)
	(16,34)
	(34,14)
	(14,34)
	(34,7)
	(7,34)
	(34,4)
	(4,34)
	(35,45)
	(45,35)
	(35,43)
	(43,35)
	(35,51)
	(51,35)
	(35,59)
	(59,35)
	(35,67)
	(67,35)
	(35,75)
	(75,35)
	(35,36)
	(36,35)
	(35,44)
	(44,35)
	(35,53)
	(53,35)
	(35,62)
	(62,35)
	(35,71)
	(71,35)
	(35,80)
	(80,35)
	(35,34)
	(34,35)
	(35,33)
	(33,35)
	(35,32)
	(32,35)
	(35,31)
	(31,35)
	(35,30)
	(30,35)
	(35,29)
	(29,35)
	(35,28)
	(28,35)
	(35,27)
	(27,35)
	(35,26)
	(26,35)
	(35,25)
	(25,35)
	(35,17)
	(17,35)
	(35,15)
	(15,35)
	(35,8)
	(8,35)
	(35,5)
	(5,35)
	(36,44)
	(44,36)
	(36,52)
	(52,36)
	(36,60)
	(60,36)
	(36,68)
	(68,36)
	(36,76)
	(76,36)
	(36,45)
	(45,36)
	(36,54)
	(54,36)
	(36,63)
	(63,36)
	(36,72)
	(72,36)
	(36,81)
	(81,36)
	(36,35)
	(35,36)
	(36,34)
	(34,36)
	(36,33)
	(33,36)
	(36,32)
	(32,36)
	(36,31)
	(31,36)
	(36,30)
	(30,36)
	(36,29)
	(29,36)
	(36,28)
	(28,36)
	(36,27)
	(27,36)
	(36,26)
	(26,36)
	(36,18)
	(18,36)
	(36,16)
	(16,36)
	(36,9)
	(9,36)
	(36,6)
	(6,36)
	(37,47)
	(47,37)
	(37,57)
	(57,37)
	(37,67)
	(67,37)
	(37,77)
	(77,37)
	(37,38)
	(38,37)
	(37,39)
	(39,37)
	(37,40)
	(40,37)
	(37,41)
	(41,37)
	(37,42)
	(42,37)
	(37,43)
	(43,37)
	(37,44)
	(44,37)
	(37,45)
	(45,37)
	(37,46)
	(46,37)
	(37,55)
	(55,37)
	(37,64)
	(64,37)
	(37,73)
	(73,37)
	(37,29)
	(29,37)
	(37,28)
	(28,37)
	(37,21)
	(21,37)
	(37,19)
	(19,37)
	(37,13)
	(13,37)
	(37,10)
	(10,37)
	(37,5)
	(5,37)
	(37,1)
	(1,37)
	(38,48)
	(48,38)
	(38,58)
	(58,38)
	(38,68)
	(68,38)
	(38,78)
	(78,38)
	(38,46)
	(46,38)
	(38,39)
	(39,38)
	(38,40)
	(40,38)
	(38,41)
	(41,38)
	(38,42)
	(42,38)
	(38,43)
	(43,38)
	(38,44)
	(44,38)
	(38,45)
	(45,38)
	(38,47)
	(47,38)
	(38,56)
	(56,38)
	(38,65)
	(65,38)
	(38,74)
	(74,38)
	(38,37)
	(37,38)
	(38,30)
	(30,38)
	(38,29)
	(29,38)
	(38,28)
	(28,38)
	(38,22)
	(22,38)
	(38,20)
	(20,38)
	(38,14)
	(14,38)
	(38,11)
	(11,38)
	(38,6)
	(6,38)
	(38,2)
	(2,38)
	(39,49)
	(49,39)
	(39,59)
	(59,39)
	(39,69)
	(69,39)
	(39,79)
	(79,39)
	(39,47)
	(47,39)
	(39,55)
	(55,39)
	(39,40)
	(40,39)
	(39,41)
	(41,39)
	(39,42)
	(42,39)
	(39,43)
	(43,39)
	(39,44)
	(44,39)
	(39,45)
	(45,39)
	(39,48)
	(48,39)
	(39,57)
	(57,39)
	(39,66)
	(66,39)
	(39,75)
	(75,39)
	(39,38)
	(38,39)
	(39,37)
	(37,39)
	(39,31)
	(31,39)
	(39,30)
	(30,39)
	(39,29)
	(29,39)
	(39,23)
	(23,39)
	(39,21)
	(21,39)
	(39,19)
	(19,39)
	(39,15)
	(15,39)
	(39,12)
	(12,39)
	(39,7)
	(7,39)
	(39,3)
	(3,39)
	(40,50)
	(50,40)
	(40,60)
	(60,40)
	(40,70)
	(70,40)
	(40,80)
	(80,40)
	(40,48)
	(48,40)
	(40,56)
	(56,40)
	(40,64)
	(64,40)
	(40,41)
	(41,40)
	(40,42)
	(42,40)
	(40,43)
	(43,40)
	(40,44)
	(44,40)
	(40,45)
	(45,40)
	(40,49)
	(49,40)
	(40,58)
	(58,40)
	(40,67)
	(67,40)
	(40,76)
	(76,40)
	(40,39)
	(39,40)
	(40,38)
	(38,40)
	(40,37)
	(37,40)
	(40,32)
	(32,40)
	(40,31)
	(31,40)
	(40,30)
	(30,40)
	(40,24)
	(24,40)
	(40,22)
	(22,40)
	(40,20)
	(20,40)
	(40,16)
	(16,40)
	(40,13)
	(13,40)
	(40,10)
	(10,40)
	(40,8)
	(8,40)
	(40,4)
	(4,40)
	(41,51)
	(51,41)
	(41,61)
	(61,41)
	(41,71)
	(71,41)
	(41,81)
	(81,41)
	(41,49)
	(49,41)
	(41,57)
	(57,41)
	(41,65)
	(65,41)
	(41,73)
	(73,41)
	(41,42)
	(42,41)
	(41,43)
	(43,41)
	(41,44)
	(44,41)
	(41,45)
	(45,41)
	(41,50)
	(50,41)
	(41,59)
	(59,41)
	(41,68)
	(68,41)
	(41,77)
	(77,41)
	(41,40)
	(40,41)
	(41,39)
	(39,41)
	(41,38)
	(38,41)
	(41,37)
	(37,41)
	(41,33)
	(33,41)
	(41,32)
	(32,41)
	(41,31)
	(31,41)
	(41,25)
	(25,41)
	(41,23)
	(23,41)
	(41,21)
	(21,41)
	(41,17)
	(17,41)
	(41,14)
	(14,41)
	(41,11)
	(11,41)
	(41,9)
	(9,41)
	(41,5)
	(5,41)
	(41,1)
	(1,41)
	(42,52)
	(52,42)
	(42,62)
	(62,42)
	(42,72)
	(72,42)
	(42,50)
	(50,42)
	(42,58)
	(58,42)
	(42,66)
	(66,42)
	(42,74)
	(74,42)
	(42,43)
	(43,42)
	(42,44)
	(44,42)
	(42,45)
	(45,42)
	(42,51)
	(51,42)
	(42,60)
	(60,42)
	(42,69)
	(69,42)
	(42,78)
	(78,42)
	(42,41)
	(41,42)
	(42,40)
	(40,42)
	(42,39)
	(39,42)
	(42,38)
	(38,42)
	(42,37)
	(37,42)
	(42,34)
	(34,42)
	(42,33)
	(33,42)
	(42,32)
	(32,42)
	(42,26)
	(26,42)
	(42,24)
	(24,42)
	(42,22)
	(22,42)
	(42,18)
	(18,42)
	(42,15)
	(15,42)
	(42,12)
	(12,42)
	(42,6)
	(6,42)
	(42,2)
	(2,42)
	(43,53)
	(53,43)
	(43,63)
	(63,43)
	(43,51)
	(51,43)
	(43,59)
	(59,43)
	(43,67)
	(67,43)
	(43,75)
	(75,43)
	(43,44)
	(44,43)
	(43,45)
	(45,43)
	(43,52)
	(52,43)
	(43,61)
	(61,43)
	(43,70)
	(70,43)
	(43,79)
	(79,43)
	(43,42)
	(42,43)
	(43,41)
	(41,43)
	(43,40)
	(40,43)
	(43,39)
	(39,43)
	(43,38)
	(38,43)
	(43,37)
	(37,43)
	(43,35)
	(35,43)
	(43,34)
	(34,43)
	(43,33)
	(33,43)
	(43,27)
	(27,43)
	(43,25)
	(25,43)
	(43,23)
	(23,43)
	(43,16)
	(16,43)
	(43,13)
	(13,43)
	(43,7)
	(7,43)
	(43,3)
	(3,43)
	(44,54)
	(54,44)
	(44,52)
	(52,44)
	(44,60)
	(60,44)
	(44,68)
	(68,44)
	(44,76)
	(76,44)
	(44,45)
	(45,44)
	(44,53)
	(53,44)
	(44,62)
	(62,44)
	(44,71)
	(71,44)
	(44,80)
	(80,44)
	(44,43)
	(43,44)
	(44,42)
	(42,44)
	(44,41)
	(41,44)
	(44,40)
	(40,44)
	(44,39)
	(39,44)
	(44,38)
	(38,44)
	(44,37)
	(37,44)
	(44,36)
	(36,44)
	(44,35)
	(35,44)
	(44,34)
	(34,44)
	(44,26)
	(26,44)
	(44,24)
	(24,44)
	(44,17)
	(17,44)
	(44,14)
	(14,44)
	(44,8)
	(8,44)
	(44,4)
	(4,44)
	(45,53)
	(53,45)
	(45,61)
	(61,45)
	(45,69)
	(69,45)
	(45,77)
	(77,45)
	(45,54)
	(54,45)
	(45,63)
	(63,45)
	(45,72)
	(72,45)
	(45,81)
	(81,45)
	(45,44)
	(44,45)
	(45,43)
	(43,45)
	(45,42)
	(42,45)
	(45,41)
	(41,45)
	(45,40)
	(40,45)
	(45,39)
	(39,45)
	(45,38)
	(38,45)
	(45,37)
	(37,45)
	(45,36)
	(36,45)
	(45,35)
	(35,45)
	(45,27)
	(27,45)
	(45,25)
	(25,45)
	(45,18)
	(18,45)
	(45,15)
	(15,45)
	(45,9)
	(9,45)
	(45,5)
	(5,45)
	(46,56)
	(56,46)
	(46,66)
	(66,46)
	(46,76)
	(76,46)
	(46,47)
	(47,46)
	(46,48)
	(48,46)
	(46,49)
	(49,46)
	(46,50)
	(50,46)
	(46,51)
	(51,46)
	(46,52)
	(52,46)
	(46,53)
	(53,46)
	(46,54)
	(54,46)
	(46,55)
	(55,46)
	(46,64)
	(64,46)
	(46,73)
	(73,46)
	(46,38)
	(38,46)
	(46,37)
	(37,46)
	(46,30)
	(30,46)
	(46,28)
	(28,46)
	(46,22)
	(22,46)
	(46,19)
	(19,46)
	(46,14)
	(14,46)
	(46,10)
	(10,46)
	(46,6)
	(6,46)
	(46,1)
	(1,46)
	(47,57)
	(57,47)
	(47,67)
	(67,47)
	(47,77)
	(77,47)
	(47,55)
	(55,47)
	(47,48)
	(48,47)
	(47,49)
	(49,47)
	(47,50)
	(50,47)
	(47,51)
	(51,47)
	(47,52)
	(52,47)
	(47,53)
	(53,47)
	(47,54)
	(54,47)
	(47,56)
	(56,47)
	(47,65)
	(65,47)
	(47,74)
	(74,47)
	(47,46)
	(46,47)
	(47,39)
	(39,47)
	(47,38)
	(38,47)
	(47,37)
	(37,47)
	(47,31)
	(31,47)
	(47,29)
	(29,47)
	(47,23)
	(23,47)
	(47,20)
	(20,47)
	(47,15)
	(15,47)
	(47,11)
	(11,47)
	(47,7)
	(7,47)
	(47,2)
	(2,47)
	(48,58)
	(58,48)
	(48,68)
	(68,48)
	(48,78)
	(78,48)
	(48,56)
	(56,48)
	(48,64)
	(64,48)
	(48,49)
	(49,48)
	(48,50)
	(50,48)
	(48,51)
	(51,48)
	(48,52)
	(52,48)
	(48,53)
	(53,48)
	(48,54)
	(54,48)
	(48,57)
	(57,48)
	(48,66)
	(66,48)
	(48,75)
	(75,48)
	(48,47)
	(47,48)
	(48,46)
	(46,48)
	(48,40)
	(40,48)
	(48,39)
	(39,48)
	(48,38)
	(38,48)
	(48,32)
	(32,48)
	(48,30)
	(30,48)
	(48,28)
	(28,48)
	(48,24)
	(24,48)
	(48,21)
	(21,48)
	(48,16)
	(16,48)
	(48,12)
	(12,48)
	(48,8)
	(8,48)
	(48,3)
	(3,48)
	(49,59)
	(59,49)
	(49,69)
	(69,49)
	(49,79)
	(79,49)
	(49,57)
	(57,49)
	(49,65)
	(65,49)
	(49,73)
	(73,49)
	(49,50)
	(50,49)
	(49,51)
	(51,49)
	(49,52)
	(52,49)
	(49,53)
	(53,49)
	(49,54)
	(54,49)
	(49,58)
	(58,49)
	(49,67)
	(67,49)
	(49,76)
	(76,49)
	(49,48)
	(48,49)
	(49,47)
	(47,49)
	(49,46)
	(46,49)
	(49,41)
	(41,49)
	(49,40)
	(40,49)
	(49,39)
	(39,49)
	(49,33)
	(33,49)
	(49,31)
	(31,49)
	(49,29)
	(29,49)
	(49,25)
	(25,49)
	(49,22)
	(22,49)
	(49,19)
	(19,49)
	(49,17)
	(17,49)
	(49,13)
	(13,49)
	(49,9)
	(9,49)
	(49,4)
	(4,49)
	(50,60)
	(60,50)
	(50,70)
	(70,50)
	(50,80)
	(80,50)
	(50,58)
	(58,50)
	(50,66)
	(66,50)
	(50,74)
	(74,50)
	(50,51)
	(51,50)
	(50,52)
	(52,50)
	(50,53)
	(53,50)
	(50,54)
	(54,50)
	(50,59)
	(59,50)
	(50,68)
	(68,50)
	(50,77)
	(77,50)
	(50,49)
	(49,50)
	(50,48)
	(48,50)
	(50,47)
	(47,50)
	(50,46)
	(46,50)
	(50,42)
	(42,50)
	(50,41)
	(41,50)
	(50,40)
	(40,50)
	(50,34)
	(34,50)
	(50,32)
	(32,50)
	(50,30)
	(30,50)
	(50,26)
	(26,50)
	(50,23)
	(23,50)
	(50,20)
	(20,50)
	(50,18)
	(18,50)
	(50,14)
	(14,50)
	(50,10)
	(10,50)
	(50,5)
	(5,50)
	(51,61)
	(61,51)
	(51,71)
	(71,51)
	(51,81)
	(81,51)
	(51,59)
	(59,51)
	(51,67)
	(67,51)
	(51,75)
	(75,51)
	(51,52)
	(52,51)
	(51,53)
	(53,51)
	(51,54)
	(54,51)
	(51,60)
	(60,51)
	(51,69)
	(69,51)
	(51,78)
	(78,51)
	(51,50)
	(50,51)
	(51,49)
	(49,51)
	(51,48)
	(48,51)
	(51,47)
	(47,51)
	(51,46)
	(46,51)
	(51,43)
	(43,51)
	(51,42)
	(42,51)
	(51,41)
	(41,51)
	(51,35)
	(35,51)
	(51,33)
	(33,51)
	(51,31)
	(31,51)
	(51,27)
	(27,51)
	(51,24)
	(24,51)
	(51,21)
	(21,51)
	(51,15)
	(15,51)
	(51,11)
	(11,51)
	(51,6)
	(6,51)
	(51,1)
	(1,51)
	(52,62)
	(62,52)
	(52,72)
	(72,52)
	(52,60)
	(60,52)
	(52,68)
	(68,52)
	(52,76)
	(76,52)
	(52,53)
	(53,52)
	(52,54)
	(54,52)
	(52,61)
	(61,52)
	(52,70)
	(70,52)
	(52,79)
	(79,52)
	(52,51)
	(51,52)
	(52,50)
	(50,52)
	(52,49)
	(49,52)
	(52,48)
	(48,52)
	(52,47)
	(47,52)
	(52,46)
	(46,52)
	(52,44)
	(44,52)
	(52,43)
	(43,52)
	(52,42)
	(42,52)
	(52,36)
	(36,52)
	(52,34)
	(34,52)
	(52,32)
	(32,52)
	(52,25)
	(25,52)
	(52,22)
	(22,52)
	(52,16)
	(16,52)
	(52,12)
	(12,52)
	(52,7)
	(7,52)
	(52,2)
	(2,52)
	(53,63)
	(63,53)
	(53,61)
	(61,53)
	(53,69)
	(69,53)
	(53,77)
	(77,53)
	(53,54)
	(54,53)
	(53,62)
	(62,53)
	(53,71)
	(71,53)
	(53,80)
	(80,53)
	(53,52)
	(52,53)
	(53,51)
	(51,53)
	(53,50)
	(50,53)
	(53,49)
	(49,53)
	(53,48)
	(48,53)
	(53,47)
	(47,53)
	(53,46)
	(46,53)
	(53,45)
	(45,53)
	(53,44)
	(44,53)
	(53,43)
	(43,53)
	(53,35)
	(35,53)
	(53,33)
	(33,53)
	(53,26)
	(26,53)
	(53,23)
	(23,53)
	(53,17)
	(17,53)
	(53,13)
	(13,53)
	(53,8)
	(8,53)
	(53,3)
	(3,53)
	(54,62)
	(62,54)
	(54,70)
	(70,54)
	(54,78)
	(78,54)
	(54,63)
	(63,54)
	(54,72)
	(72,54)
	(54,81)
	(81,54)
	(54,53)
	(53,54)
	(54,52)
	(52,54)
	(54,51)
	(51,54)
	(54,50)
	(50,54)
	(54,49)
	(49,54)
	(54,48)
	(48,54)
	(54,47)
	(47,54)
	(54,46)
	(46,54)
	(54,45)
	(45,54)
	(54,44)
	(44,54)
	(54,36)
	(36,54)
	(54,34)
	(34,54)
	(54,27)
	(27,54)
	(54,24)
	(24,54)
	(54,18)
	(18,54)
	(54,14)
	(14,54)
	(54,9)
	(9,54)
	(54,4)
	(4,54)
	(55,65)
	(65,55)
	(55,75)
	(75,55)
	(55,56)
	(56,55)
	(55,57)
	(57,55)
	(55,58)
	(58,55)
	(55,59)
	(59,55)
	(55,60)
	(60,55)
	(55,61)
	(61,55)
	(55,62)
	(62,55)
	(55,63)
	(63,55)
	(55,64)
	(64,55)
	(55,73)
	(73,55)
	(55,47)
	(47,55)
	(55,46)
	(46,55)
	(55,39)
	(39,55)
	(55,37)
	(37,55)
	(55,31)
	(31,55)
	(55,28)
	(28,55)
	(55,23)
	(23,55)
	(55,19)
	(19,55)
	(55,15)
	(15,55)
	(55,10)
	(10,55)
	(55,7)
	(7,55)
	(55,1)
	(1,55)
	(56,66)
	(66,56)
	(56,76)
	(76,56)
	(56,64)
	(64,56)
	(56,57)
	(57,56)
	(56,58)
	(58,56)
	(56,59)
	(59,56)
	(56,60)
	(60,56)
	(56,61)
	(61,56)
	(56,62)
	(62,56)
	(56,63)
	(63,56)
	(56,65)
	(65,56)
	(56,74)
	(74,56)
	(56,55)
	(55,56)
	(56,48)
	(48,56)
	(56,47)
	(47,56)
	(56,46)
	(46,56)
	(56,40)
	(40,56)
	(56,38)
	(38,56)
	(56,32)
	(32,56)
	(56,29)
	(29,56)
	(56,24)
	(24,56)
	(56,20)
	(20,56)
	(56,16)
	(16,56)
	(56,11)
	(11,56)
	(56,8)
	(8,56)
	(56,2)
	(2,56)
	(57,67)
	(67,57)
	(57,77)
	(77,57)
	(57,65)
	(65,57)
	(57,73)
	(73,57)
	(57,58)
	(58,57)
	(57,59)
	(59,57)
	(57,60)
	(60,57)
	(57,61)
	(61,57)
	(57,62)
	(62,57)
	(57,63)
	(63,57)
	(57,66)
	(66,57)
	(57,75)
	(75,57)
	(57,56)
	(56,57)
	(57,55)
	(55,57)
	(57,49)
	(49,57)
	(57,48)
	(48,57)
	(57,47)
	(47,57)
	(57,41)
	(41,57)
	(57,39)
	(39,57)
	(57,37)
	(37,57)
	(57,33)
	(33,57)
	(57,30)
	(30,57)
	(57,25)
	(25,57)
	(57,21)
	(21,57)
	(57,17)
	(17,57)
	(57,12)
	(12,57)
	(57,9)
	(9,57)
	(57,3)
	(3,57)
	(58,68)
	(68,58)
	(58,78)
	(78,58)
	(58,66)
	(66,58)
	(58,74)
	(74,58)
	(58,59)
	(59,58)
	(58,60)
	(60,58)
	(58,61)
	(61,58)
	(58,62)
	(62,58)
	(58,63)
	(63,58)
	(58,67)
	(67,58)
	(58,76)
	(76,58)
	(58,57)
	(57,58)
	(58,56)
	(56,58)
	(58,55)
	(55,58)
	(58,50)
	(50,58)
	(58,49)
	(49,58)
	(58,48)
	(48,58)
	(58,42)
	(42,58)
	(58,40)
	(40,58)
	(58,38)
	(38,58)
	(58,34)
	(34,58)
	(58,31)
	(31,58)
	(58,28)
	(28,58)
	(58,26)
	(26,58)
	(58,22)
	(22,58)
	(58,18)
	(18,58)
	(58,13)
	(13,58)
	(58,4)
	(4,58)
	(59,69)
	(69,59)
	(59,79)
	(79,59)
	(59,67)
	(67,59)
	(59,75)
	(75,59)
	(59,60)
	(60,59)
	(59,61)
	(61,59)
	(59,62)
	(62,59)
	(59,63)
	(63,59)
	(59,68)
	(68,59)
	(59,77)
	(77,59)
	(59,58)
	(58,59)
	(59,57)
	(57,59)
	(59,56)
	(56,59)
	(59,55)
	(55,59)
	(59,51)
	(51,59)
	(59,50)
	(50,59)
	(59,49)
	(49,59)
	(59,43)
	(43,59)
	(59,41)
	(41,59)
	(59,39)
	(39,59)
	(59,35)
	(35,59)
	(59,32)
	(32,59)
	(59,29)
	(29,59)
	(59,27)
	(27,59)
	(59,23)
	(23,59)
	(59,19)
	(19,59)
	(59,14)
	(14,59)
	(59,5)
	(5,59)
	(60,70)
	(70,60)
	(60,80)
	(80,60)
	(60,68)
	(68,60)
	(60,76)
	(76,60)
	(60,61)
	(61,60)
	(60,62)
	(62,60)
	(60,63)
	(63,60)
	(60,69)
	(69,60)
	(60,78)
	(78,60)
	(60,59)
	(59,60)
	(60,58)
	(58,60)
	(60,57)
	(57,60)
	(60,56)
	(56,60)
	(60,55)
	(55,60)
	(60,52)
	(52,60)
	(60,51)
	(51,60)
	(60,50)
	(50,60)
	(60,44)
	(44,60)
	(60,42)
	(42,60)
	(60,40)
	(40,60)
	(60,36)
	(36,60)
	(60,33)
	(33,60)
	(60,30)
	(30,60)
	(60,24)
	(24,60)
	(60,20)
	(20,60)
	(60,15)
	(15,60)
	(60,10)
	(10,60)
	(60,6)
	(6,60)
	(61,71)
	(71,61)
	(61,81)
	(81,61)
	(61,69)
	(69,61)
	(61,77)
	(77,61)
	(61,62)
	(62,61)
	(61,63)
	(63,61)
	(61,70)
	(70,61)
	(61,79)
	(79,61)
	(61,60)
	(60,61)
	(61,59)
	(59,61)
	(61,58)
	(58,61)
	(61,57)
	(57,61)
	(61,56)
	(56,61)
	(61,55)
	(55,61)
	(61,53)
	(53,61)
	(61,52)
	(52,61)
	(61,51)
	(51,61)
	(61,45)
	(45,61)
	(61,43)
	(43,61)
	(61,41)
	(41,61)
	(61,34)
	(34,61)
	(61,31)
	(31,61)
	(61,25)
	(25,61)
	(61,21)
	(21,61)
	(61,16)
	(16,61)
	(61,11)
	(11,61)
	(61,7)
	(7,61)
	(61,1)
	(1,61)
	(62,72)
	(72,62)
	(62,70)
	(70,62)
	(62,78)
	(78,62)
	(62,63)
	(63,62)
	(62,71)
	(71,62)
	(62,80)
	(80,62)
	(62,61)
	(61,62)
	(62,60)
	(60,62)
	(62,59)
	(59,62)
	(62,58)
	(58,62)
	(62,57)
	(57,62)
	(62,56)
	(56,62)
	(62,55)
	(55,62)
	(62,54)
	(54,62)
	(62,53)
	(53,62)
	(62,52)
	(52,62)
	(62,44)
	(44,62)
	(62,42)
	(42,62)
	(62,35)
	(35,62)
	(62,32)
	(32,62)
	(62,26)
	(26,62)
	(62,22)
	(22,62)
	(62,17)
	(17,62)
	(62,12)
	(12,62)
	(62,8)
	(8,62)
	(62,2)
	(2,62)
	(63,71)
	(71,63)
	(63,79)
	(79,63)
	(63,72)
	(72,63)
	(63,81)
	(81,63)
	(63,62)
	(62,63)
	(63,61)
	(61,63)
	(63,60)
	(60,63)
	(63,59)
	(59,63)
	(63,58)
	(58,63)
	(63,57)
	(57,63)
	(63,56)
	(56,63)
	(63,55)
	(55,63)
	(63,54)
	(54,63)
	(63,53)
	(53,63)
	(63,45)
	(45,63)
	(63,43)
	(43,63)
	(63,36)
	(36,63)
	(63,33)
	(33,63)
	(63,27)
	(27,63)
	(63,23)
	(23,63)
	(63,18)
	(18,63)
	(63,13)
	(13,63)
	(63,9)
	(9,63)
	(63,3)
	(3,63)
	(64,74)
	(74,64)
	(64,65)
	(65,64)
	(64,66)
	(66,64)
	(64,67)
	(67,64)
	(64,68)
	(68,64)
	(64,69)
	(69,64)
	(64,70)
	(70,64)
	(64,71)
	(71,64)
	(64,72)
	(72,64)
	(64,73)
	(73,64)
	(64,56)
	(56,64)
	(64,55)
	(55,64)
	(64,48)
	(48,64)
	(64,46)
	(46,64)
	(64,40)
	(40,64)
	(64,37)
	(37,64)
	(64,32)
	(32,64)
	(64,28)
	(28,64)
	(64,24)
	(24,64)
	(64,19)
	(19,64)
	(64,16)
	(16,64)
	(64,10)
	(10,64)
	(64,8)
	(8,64)
	(64,1)
	(1,64)
	(65,75)
	(75,65)
	(65,73)
	(73,65)
	(65,66)
	(66,65)
	(65,67)
	(67,65)
	(65,68)
	(68,65)
	(65,69)
	(69,65)
	(65,70)
	(70,65)
	(65,71)
	(71,65)
	(65,72)
	(72,65)
	(65,74)
	(74,65)
	(65,64)
	(64,65)
	(65,57)
	(57,65)
	(65,56)
	(56,65)
	(65,55)
	(55,65)
	(65,49)
	(49,65)
	(65,47)
	(47,65)
	(65,41)
	(41,65)
	(65,38)
	(38,65)
	(65,33)
	(33,65)
	(65,29)
	(29,65)
	(65,25)
	(25,65)
	(65,20)
	(20,65)
	(65,17)
	(17,65)
	(65,11)
	(11,65)
	(65,9)
	(9,65)
	(65,2)
	(2,65)
	(66,76)
	(76,66)
	(66,74)
	(74,66)
	(66,67)
	(67,66)
	(66,68)
	(68,66)
	(66,69)
	(69,66)
	(66,70)
	(70,66)
	(66,71)
	(71,66)
	(66,72)
	(72,66)
	(66,75)
	(75,66)
	(66,65)
	(65,66)
	(66,64)
	(64,66)
	(66,58)
	(58,66)
	(66,57)
	(57,66)
	(66,56)
	(56,66)
	(66,50)
	(50,66)
	(66,48)
	(48,66)
	(66,46)
	(46,66)
	(66,42)
	(42,66)
	(66,39)
	(39,66)
	(66,34)
	(34,66)
	(66,30)
	(30,66)
	(66,26)
	(26,66)
	(66,21)
	(21,66)
	(66,18)
	(18,66)
	(66,12)
	(12,66)
	(66,3)
	(3,66)
	(67,77)
	(77,67)
	(67,75)
	(75,67)
	(67,68)
	(68,67)
	(67,69)
	(69,67)
	(67,70)
	(70,67)
	(67,71)
	(71,67)
	(67,72)
	(72,67)
	(67,76)
	(76,67)
	(67,66)
	(66,67)
	(67,65)
	(65,67)
	(67,64)
	(64,67)
	(67,59)
	(59,67)
	(67,58)
	(58,67)
	(67,57)
	(57,67)
	(67,51)
	(51,67)
	(67,49)
	(49,67)
	(67,47)
	(47,67)
	(67,43)
	(43,67)
	(67,40)
	(40,67)
	(67,37)
	(37,67)
	(67,35)
	(35,67)
	(67,31)
	(31,67)
	(67,27)
	(27,67)
	(67,22)
	(22,67)
	(67,13)
	(13,67)
	(67,4)
	(4,67)
	(68,78)
	(78,68)
	(68,76)
	(76,68)
	(68,69)
	(69,68)
	(68,70)
	(70,68)
	(68,71)
	(71,68)
	(68,72)
	(72,68)
	(68,77)
	(77,68)
	(68,67)
	(67,68)
	(68,66)
	(66,68)
	(68,65)
	(65,68)
	(68,64)
	(64,68)
	(68,60)
	(60,68)
	(68,59)
	(59,68)
	(68,58)
	(58,68)
	(68,52)
	(52,68)
	(68,50)
	(50,68)
	(68,48)
	(48,68)
	(68,44)
	(44,68)
	(68,41)
	(41,68)
	(68,38)
	(38,68)
	(68,36)
	(36,68)
	(68,32)
	(32,68)
	(68,28)
	(28,68)
	(68,23)
	(23,68)
	(68,14)
	(14,68)
	(68,5)
	(5,68)
	(69,79)
	(79,69)
	(69,77)
	(77,69)
	(69,70)
	(70,69)
	(69,71)
	(71,69)
	(69,72)
	(72,69)
	(69,78)
	(78,69)
	(69,68)
	(68,69)
	(69,67)
	(67,69)
	(69,66)
	(66,69)
	(69,65)
	(65,69)
	(69,64)
	(64,69)
	(69,61)
	(61,69)
	(69,60)
	(60,69)
	(69,59)
	(59,69)
	(69,53)
	(53,69)
	(69,51)
	(51,69)
	(69,49)
	(49,69)
	(69,45)
	(45,69)
	(69,42)
	(42,69)
	(69,39)
	(39,69)
	(69,33)
	(33,69)
	(69,29)
	(29,69)
	(69,24)
	(24,69)
	(69,19)
	(19,69)
	(69,15)
	(15,69)
	(69,6)
	(6,69)
	(70,80)
	(80,70)
	(70,78)
	(78,70)
	(70,71)
	(71,70)
	(70,72)
	(72,70)
	(70,79)
	(79,70)
	(70,69)
	(69,70)
	(70,68)
	(68,70)
	(70,67)
	(67,70)
	(70,66)
	(66,70)
	(70,65)
	(65,70)
	(70,64)
	(64,70)
	(70,62)
	(62,70)
	(70,61)
	(61,70)
	(70,60)
	(60,70)
	(70,54)
	(54,70)
	(70,52)
	(52,70)
	(70,50)
	(50,70)
	(70,43)
	(43,70)
	(70,40)
	(40,70)
	(70,34)
	(34,70)
	(70,30)
	(30,70)
	(70,25)
	(25,70)
	(70,20)
	(20,70)
	(70,16)
	(16,70)
	(70,10)
	(10,70)
	(70,7)
	(7,70)
	(71,81)
	(81,71)
	(71,79)
	(79,71)
	(71,72)
	(72,71)
	(71,80)
	(80,71)
	(71,70)
	(70,71)
	(71,69)
	(69,71)
	(71,68)
	(68,71)
	(71,67)
	(67,71)
	(71,66)
	(66,71)
	(71,65)
	(65,71)
	(71,64)
	(64,71)
	(71,63)
	(63,71)
	(71,62)
	(62,71)
	(71,61)
	(61,71)
	(71,53)
	(53,71)
	(71,51)
	(51,71)
	(71,44)
	(44,71)
	(71,41)
	(41,71)
	(71,35)
	(35,71)
	(71,31)
	(31,71)
	(71,26)
	(26,71)
	(71,21)
	(21,71)
	(71,17)
	(17,71)
	(71,11)
	(11,71)
	(71,8)
	(8,71)
	(71,1)
	(1,71)
	(72,80)
	(80,72)
	(72,81)
	(81,72)
	(72,71)
	(71,72)
	(72,70)
	(70,72)
	(72,69)
	(69,72)
	(72,68)
	(68,72)
	(72,67)
	(67,72)
	(72,66)
	(66,72)
	(72,65)
	(65,72)
	(72,64)
	(64,72)
	(72,63)
	(63,72)
	(72,62)
	(62,72)
	(72,54)
	(54,72)
	(72,52)
	(52,72)
	(72,45)
	(45,72)
	(72,42)
	(42,72)
	(72,36)
	(36,72)
	(72,32)
	(32,72)
	(72,27)
	(27,72)
	(72,22)
	(22,72)
	(72,18)
	(18,72)
	(72,12)
	(12,72)
	(72,9)
	(9,72)
	(72,2)
	(2,72)
	(73,74)
	(74,73)
	(73,75)
	(75,73)
	(73,76)
	(76,73)
	(73,77)
	(77,73)
	(73,78)
	(78,73)
	(73,79)
	(79,73)
	(73,80)
	(80,73)
	(73,81)
	(81,73)
	(73,65)
	(65,73)
	(73,64)
	(64,73)
	(73,57)
	(57,73)
	(73,55)
	(55,73)
	(73,49)
	(49,73)
	(73,46)
	(46,73)
	(73,41)
	(41,73)
	(73,37)
	(37,73)
	(73,33)
	(33,73)
	(73,28)
	(28,73)
	(73,25)
	(25,73)
	(73,19)
	(19,73)
	(73,17)
	(17,73)
	(73,10)
	(10,73)
	(73,9)
	(9,73)
	(73,1)
	(1,73)
	(74,75)
	(75,74)
	(74,76)
	(76,74)
	(74,77)
	(77,74)
	(74,78)
	(78,74)
	(74,79)
	(79,74)
	(74,80)
	(80,74)
	(74,81)
	(81,74)
	(74,73)
	(73,74)
	(74,66)
	(66,74)
	(74,65)
	(65,74)
	(74,64)
	(64,74)
	(74,58)
	(58,74)
	(74,56)
	(56,74)
	(74,50)
	(50,74)
	(74,47)
	(47,74)
	(74,42)
	(42,74)
	(74,38)
	(38,74)
	(74,34)
	(34,74)
	(74,29)
	(29,74)
	(74,26)
	(26,74)
	(74,20)
	(20,74)
	(74,18)
	(18,74)
	(74,11)
	(11,74)
	(74,2)
	(2,74)
	(75,76)
	(76,75)
	(75,77)
	(77,75)
	(75,78)
	(78,75)
	(75,79)
	(79,75)
	(75,80)
	(80,75)
	(75,81)
	(81,75)
	(75,74)
	(74,75)
	(75,73)
	(73,75)
	(75,67)
	(67,75)
	(75,66)
	(66,75)
	(75,65)
	(65,75)
	(75,59)
	(59,75)
	(75,57)
	(57,75)
	(75,55)
	(55,75)
	(75,51)
	(51,75)
	(75,48)
	(48,75)
	(75,43)
	(43,75)
	(75,39)
	(39,75)
	(75,35)
	(35,75)
	(75,30)
	(30,75)
	(75,27)
	(27,75)
	(75,21)
	(21,75)
	(75,12)
	(12,75)
	(75,3)
	(3,75)
	(76,77)
	(77,76)
	(76,78)
	(78,76)
	(76,79)
	(79,76)
	(76,80)
	(80,76)
	(76,81)
	(81,76)
	(76,75)
	(75,76)
	(76,74)
	(74,76)
	(76,73)
	(73,76)
	(76,68)
	(68,76)
	(76,67)
	(67,76)
	(76,66)
	(66,76)
	(76,60)
	(60,76)
	(76,58)
	(58,76)
	(76,56)
	(56,76)
	(76,52)
	(52,76)
	(76,49)
	(49,76)
	(76,46)
	(46,76)
	(76,44)
	(44,76)
	(76,40)
	(40,76)
	(76,36)
	(36,76)
	(76,31)
	(31,76)
	(76,22)
	(22,76)
	(76,13)
	(13,76)
	(76,4)
	(4,76)
	(77,78)
	(78,77)
	(77,79)
	(79,77)
	(77,80)
	(80,77)
	(77,81)
	(81,77)
	(77,76)
	(76,77)
	(77,75)
	(75,77)
	(77,74)
	(74,77)
	(77,73)
	(73,77)
	(77,69)
	(69,77)
	(77,68)
	(68,77)
	(77,67)
	(67,77)
	(77,61)
	(61,77)
	(77,59)
	(59,77)
	(77,57)
	(57,77)
	(77,53)
	(53,77)
	(77,50)
	(50,77)
	(77,47)
	(47,77)
	(77,45)
	(45,77)
	(77,41)
	(41,77)
	(77,37)
	(37,77)
	(77,32)
	(32,77)
	(77,23)
	(23,77)
	(77,14)
	(14,77)
	(77,5)
	(5,77)
	(78,79)
	(79,78)
	(78,80)
	(80,78)
	(78,81)
	(81,78)
	(78,77)
	(77,78)
	(78,76)
	(76,78)
	(78,75)
	(75,78)
	(78,74)
	(74,78)
	(78,73)
	(73,78)
	(78,70)
	(70,78)
	(78,69)
	(69,78)
	(78,68)
	(68,78)
	(78,62)
	(62,78)
	(78,60)
	(60,78)
	(78,58)
	(58,78)
	(78,54)
	(54,78)
	(78,51)
	(51,78)
	(78,48)
	(48,78)
	(78,42)
	(42,78)
	(78,38)
	(38,78)
	(78,33)
	(33,78)
	(78,28)
	(28,78)
	(78,24)
	(24,78)
	(78,15)
	(15,78)
	(78,6)
	(6,78)
	(79,80)
	(80,79)
	(79,81)
	(81,79)
	(79,78)
	(78,79)
	(79,77)
	(77,79)
	(79,76)
	(76,79)
	(79,75)
	(75,79)
	(79,74)
	(74,79)
	(79,73)
	(73,79)
	(79,71)
	(71,79)
	(79,70)
	(70,79)
	(79,69)
	(69,79)
	(79,63)
	(63,79)
	(79,61)
	(61,79)
	(79,59)
	(59,79)
	(79,52)
	(52,79)
	(79,49)
	(49,79)
	(79,43)
	(43,79)
	(79,39)
	(39,79)
	(79,34)
	(34,79)
	(79,29)
	(29,79)
	(79,25)
	(25,79)
	(79,19)
	(19,79)
	(79,16)
	(16,79)
	(79,7)
	(7,79)
	(80,81)
	(81,80)
	(80,79)
	(79,80)
	(80,78)
	(78,80)
	(80,77)
	(77,80)
	(80,76)
	(76,80)
	(80,75)
	(75,80)
	(80,74)
	(74,80)
	(80,73)
	(73,80)
	(80,72)
	(72,80)
	(80,71)
	(71,80)
	(80,70)
	(70,80)
	(80,62)
	(62,80)
	(80,60)
	(60,80)
	(80,53)
	(53,80)
	(80,50)
	(50,80)
	(80,44)
	(44,80)
	(80,40)
	(40,80)
	(80,35)
	(35,80)
	(80,30)
	(30,80)
	(80,26)
	(26,80)
	(80,20)
	(20,80)
	(80,17)
	(17,80)
	(80,10)
	(10,80)
	(80,8)
	(8,80)
	(81,80)
	(80,81)
	(81,79)
	(79,81)
	(81,78)
	(78,81)
	(81,77)
	(77,81)
	(81,76)
	(76,81)
	(81,75)
	(75,81)
	(81,74)
	(74,81)
	(81,73)
	(73,81)
	(81,72)
	(72,81)
	(81,71)
	(71,81)
	(81,63)
	(63,81)
	(81,61)
	(61,81)
	(81,54)
	(54,81)
	(81,51)
	(51,81)
	(81,45)
	(45,81)
	(81,41)
	(41,81)
	(81,36)
	(36,81)
	(81,31)
	(31,81)
	(81,27)
	(27,81)
	(81,21)
	(21,81)
	(81,18)
	(18,81)
	(81,11)
	(11,81)
	(81,9)
	(9,81)
	(81,1)
	(1,81);
end;
